Minimize
  - 24 y_0 - 14 y_1 - 28 y_2 - 9 y_3 - 12 y_4 - 50 y_5 - 17 y_6 - 38 y_8
   - 21 y_9 - 42 y_10 - 27 y_11 - 11 y_12 - 41 y_13 - 26 y_14 - 22 y_15
   - 51 y_16 - 36 y_17 - 12 y_18 - 37 y_19 + 20 x_0_1 + 24 x_0_4 + 47 x_0_6
   + 48 x_0_7 + 44 x_0_10 + 40 x_0_11 + 49 x_0_13 + 7 x_0_15 + 23 x_0_17
   + 24 x_0_18 + 40 x_0_19 + 44 x_1_2 + 80 x_1_5 + 35 x_1_6 + 28 x_1_7
   + 50 x_1_8 + 25 x_1_9 + 60 x_1_10 + 7 x_1_12 + 61 x_1_13 + 77 x_1_16
   + 44 x_1_17 + 6 x_1_18 + 52 x_1_19 + 50 x_2_3 + 42 x_2_4 + 57 x_2_7
   + 73 x_2_8 + 68 x_2_9 + 85 x_2_10 + 4 x_2_11 + 44 x_2_12 + 33 x_2_13
   + 4 x_2_14 + 38 x_2_15 + 60 x_2_16 + 8 x_3_4 + 89 x_3_5 + 18 x_3_7
   + 58 x_3_8 + 26 x_3_9 + 46 x_3_14 + 28 x_3_15 + 54 x_3_17 + 7 x_3_18
   + 81 x_4_5 + 31 x_4_6 + 25 x_4_7 + 54 x_4_8 + 39 x_4_11 + 3 x_4_12
   + 79 x_4_16 + 47 x_4_17 + 56 x_4_19 + 73 x_5_6 + 101 x_5_7 + 82 x_5_8
   + 98 x_5_9 + 47 x_5_11 + 83 x_5_12 + 20 x_5_13 + 50 x_5_14 + 66 x_5_15
   + 60 x_5_17 + 86 x_5_18 + 80 x_6_8 + 60 x_6_9 + 91 x_6_10 + 27 x_6_11
   + 31 x_6_12 + 59 x_6_13 + 23 x_6_14 + 40 x_6_15 + 83 x_6_16 + 66 x_6_17
   + 38 x_6_18 + 85 x_6_19 + 76 x_7_8 + 41 x_7_9 + 85 x_7_10 + 55 x_7_11
   + 21 x_7_12 + 83 x_7_13 + 53 x_7_14 + 72 x_7_17 + 25 x_7_18 + 75 x_7_19
   + 41 x_8_9 + 12 x_8_10 + 69 x_8_11 + 57 x_8_12 + 64 x_8_13 + 72 x_8_14
   + 39 x_8_15 + 60 x_8_16 + 46 x_9_10 + 29 x_9_12 + 65 x_9_14 + 33 x_9_15
   + 87 x_9_16 + 47 x_9_17 + 22 x_9_18 + 67 x_10_12 + 75 x_10_13
   + 84 x_10_14 + 51 x_10_15 + 68 x_10_16 + 61 x_10_18 + 14 x_10_19
   + 32 x_11_13 + 58 x_11_16 + 50 x_11_17 + 46 x_11_18 + 80 x_11_19
   + 40 x_12_14 + 23 x_12_15 + 82 x_12_16 + 58 x_12_19 + 36 x_13_14
   + 45 x_13_15 + 27 x_13_16 + 42 x_13_17 + 67 x_13_18 + 79 x_13_19
   + 35 x_14_15 + 54 x_14_17 + 59 x_15_16 + 28 x_15_17 + 47 x_15_19
   + 82 x_16_18 + 48 x_17_18 + 37 x_17_19 + 51 x_18_19 + 518 Constant
Subject To
 c_0: y_15 = 1
 c_1_0: y_0 >= 1
 c_1_1: y_1 + y_4 + y_18 >= 1
 c_1_2: y_2 + y_11 + y_14 >= 1
 c_1_3: y_3 + y_12 >= 1
 c_1_4: y_1 + y_4 + y_12 >= 1
 c_1_5: y_5 >= 1
 c_1_6: y_6 >= 1
 c_1_7: y_7 >= 1
 c_1_8: y_8 >= 1
 c_1_9: y_9 >= 1
 c_1_10: y_10 >= 1
 c_1_11: y_2 + y_11 + y_14 >= 1
 c_1_12: y_3 + y_4 + y_12 >= 1
 c_1_13: y_13 >= 1
 c_1_14: y_2 + y_11 + y_14 >= 1
 c_1_15: y_15 >= 1
 c_1_16: y_16 >= 1
 c_1_17: y_17 >= 1
 c_1_18: y_1 + y_18 >= 1
 c_1_19: y_19 >= 1
 c_2_0: - 2 y_0 + x_0_1 + x_0_4 + x_0_6 + x_0_7 + x_0_10 + x_0_11 + x_0_13
   + x_0_15 + x_0_17 + x_0_18 + x_0_19 = 0
 c_2_1: - 2 y_1 + x_0_1 + x_1_2 + x_1_5 + x_1_6 + x_1_7 + x_1_8 + x_1_9
   + x_1_10 + x_1_12 + x_1_13 + x_1_16 + x_1_17 + x_1_18 + x_1_19 = 0
 c_2_2: - 2 y_2 + x_1_2 + x_2_3 + x_2_4 + x_2_7 + x_2_8 + x_2_9 + x_2_10
   + x_2_11 + x_2_12 + x_2_13 + x_2_14 + x_2_15 + x_2_16 = 0
 c_2_3: - 2 y_3 + x_2_3 + x_3_4 + x_3_5 + x_3_7 + x_3_8 + x_3_9 + x_3_14
   + x_3_15 + x_3_17 + x_3_18 = 0
 c_2_4: - 2 y_4 + x_0_4 + x_2_4 + x_3_4 + x_4_5 + x_4_6 + x_4_7 + x_4_8
   + x_4_11 + x_4_12 + x_4_16 + x_4_17 + x_4_19 = 0
 c_2_5: - 2 y_5 + x_1_5 + x_3_5 + x_4_5 + x_5_6 + x_5_7 + x_5_8 + x_5_9
   + x_5_11 + x_5_12 + x_5_13 + x_5_14 + x_5_15 + x_5_17 + x_5_18 = 0
 c_2_6: - 2 y_6 + x_0_6 + x_1_6 + x_4_6 + x_5_6 + x_6_8 + x_6_9 + x_6_10
   + x_6_11 + x_6_12 + x_6_13 + x_6_14 + x_6_15 + x_6_16 + x_6_17 + x_6_18
   + x_6_19 = 0
 c_2_7: - 2 y_7 + x_0_7 + x_1_7 + x_2_7 + x_3_7 + x_4_7 + x_5_7 + x_7_8
   + x_7_9 + x_7_10 + x_7_11 + x_7_12 + x_7_13 + x_7_14 + x_7_17 + x_7_18
   + x_7_19 = 0
 c_2_8: - 2 y_8 + x_1_8 + x_2_8 + x_3_8 + x_4_8 + x_5_8 + x_6_8 + x_7_8
   + x_8_9 + x_8_10 + x_8_11 + x_8_12 + x_8_13 + x_8_14 + x_8_15 + x_8_16
   = 0
 c_2_9: - 2 y_9 + x_1_9 + x_2_9 + x_3_9 + x_5_9 + x_6_9 + x_7_9 + x_8_9
   + x_9_10 + x_9_12 + x_9_14 + x_9_15 + x_9_16 + x_9_17 + x_9_18 = 0
 c_2_10: - 2 y_10 + x_0_10 + x_1_10 + x_2_10 + x_6_10 + x_7_10 + x_8_10
   + x_9_10 + x_10_12 + x_10_13 + x_10_14 + x_10_15 + x_10_16 + x_10_18
   + x_10_19 = 0
 c_2_11: - 2 y_11 + x_0_11 + x_2_11 + x_4_11 + x_5_11 + x_6_11 + x_7_11
   + x_8_11 + x_11_13 + x_11_16 + x_11_17 + x_11_18 + x_11_19 = 0
 c_2_12: - 2 y_12 + x_1_12 + x_2_12 + x_4_12 + x_5_12 + x_6_12 + x_7_12
   + x_8_12 + x_9_12 + x_10_12 + x_12_14 + x_12_15 + x_12_16 + x_12_19 = 0
 c_2_13: - 2 y_13 + x_0_13 + x_1_13 + x_2_13 + x_5_13 + x_6_13 + x_7_13
   + x_8_13 + x_10_13 + x_11_13 + x_13_14 + x_13_15 + x_13_16 + x_13_17
   + x_13_18 + x_13_19 = 0
 c_2_14: - 2 y_14 + x_2_14 + x_3_14 + x_5_14 + x_6_14 + x_7_14 + x_8_14
   + x_9_14 + x_10_14 + x_12_14 + x_13_14 + x_14_15 + x_14_17 = 0
 c_2_15: - 2 y_15 + x_0_15 + x_2_15 + x_3_15 + x_5_15 + x_6_15 + x_8_15
   + x_9_15 + x_10_15 + x_12_15 + x_13_15 + x_14_15 + x_15_16 + x_15_17
   + x_15_19 = 0
 c_2_16: - 2 y_16 + x_1_16 + x_2_16 + x_4_16 + x_6_16 + x_8_16 + x_9_16
   + x_10_16 + x_11_16 + x_12_16 + x_13_16 + x_15_16 + x_16_18 = 0
 c_2_17: - 2 y_17 + x_0_17 + x_1_17 + x_3_17 + x_4_17 + x_5_17 + x_6_17
   + x_7_17 + x_9_17 + x_11_17 + x_13_17 + x_14_17 + x_15_17 + x_17_18
   + x_17_19 = 0
 c_2_18: - 2 y_18 + x_0_18 + x_1_18 + x_3_18 + x_5_18 + x_6_18 + x_7_18
   + x_9_18 + x_10_18 + x_11_18 + x_13_18 + x_16_18 + x_17_18 + x_18_19
   = 0
 c_2_19: - 2 y_19 + x_0_19 + x_1_19 + x_4_19 + x_6_19 + x_7_19 + x_10_19
   + x_11_19 + x_12_19 + x_13_19 + x_15_19 + x_17_19 + x_18_19 = 0
Bounds
 Constant = 1
Binaries
 y_0 y_1 y_2 y_3 y_4 y_5 y_6 y_7 y_8 y_9 y_10 y_11 y_12 y_13 y_14 y_15 y_16
 y_17 y_18 y_19 x_0_1 x_0_4 x_0_6 x_0_7 x_0_10 x_0_11 x_0_13 x_0_15 x_0_17
 x_0_18 x_0_19 x_1_2 x_1_5 x_1_6 x_1_7 x_1_8 x_1_9 x_1_10 x_1_12 x_1_13
 x_1_16 x_1_17 x_1_18 x_1_19 x_2_3 x_2_4 x_2_7 x_2_8 x_2_9 x_2_10 x_2_11
 x_2_12 x_2_13 x_2_14 x_2_15 x_2_16 x_3_4 x_3_5 x_3_7 x_3_8 x_3_9 x_3_14
 x_3_15 x_3_17 x_3_18 x_4_5 x_4_6 x_4_7 x_4_8 x_4_11 x_4_12 x_4_16 x_4_17
 x_4_19 x_5_6 x_5_7 x_5_8 x_5_9 x_5_11 x_5_12 x_5_13 x_5_14 x_5_15 x_5_17
 x_5_18 x_6_8 x_6_9 x_6_10 x_6_11 x_6_12 x_6_13 x_6_14 x_6_15 x_6_16 x_6_17
 x_6_18 x_6_19 x_7_8 x_7_9 x_7_10 x_7_11 x_7_12 x_7_13 x_7_14 x_7_17 x_7_18
 x_7_19 x_8_9 x_8_10 x_8_11 x_8_12 x_8_13 x_8_14 x_8_15 x_8_16 x_9_10
 x_9_12 x_9_14 x_9_15 x_9_16 x_9_17 x_9_18 x_10_12 x_10_13 x_10_14 x_10_15
 x_10_16 x_10_18 x_10_19 x_11_13 x_11_16 x_11_17 x_11_18 x_11_19 x_12_14
 x_12_15 x_12_16 x_12_19 x_13_14 x_13_15 x_13_16 x_13_17 x_13_18 x_13_19
 x_14_15 x_14_17 x_15_16 x_15_17 x_15_19 x_16_18 x_17_18 x_17_19 x_18_19
End
